solution status: optimal solution found
objective value:                                    0
$_7__2_y                                           19 	(obj:0)
$_7__2_z                                           23 	(obj:0)
$_60_y                                             22 	(obj:0)
$_60_z                                             22 	(obj:0)
$_90_y                                             23 	(obj:0)
$_90_z                                             22 	(obj:0)
$_93_y                                             22 	(obj:0)
$_93_z                                             24 	(obj:0)
$_44_y                                             20 	(obj:0)
$_44_z                                             22 	(obj:0)
$_59_y                                             23 	(obj:0)
$_59_z                                             23 	(obj:0)
$_6__2_y                                            1 	(obj:0)
$_6__2_z                                           25 	(obj:0)
$_54_y                                             22 	(obj:0)
$_54_z                                             23 	(obj:0)
$_22_y                                             20 	(obj:0)
$_22_z                                             25 	(obj:0)
$_53_y                                             21 	(obj:0)
$_53_z                                             23 	(obj:0)
